p cnf 512 1566
a 2 3 4 5 6 7 8 12 17 19 24 29 34 37 38 45 46 50 54 55 58 62 66 68 70 72 74 75 79 83 85 89 93 98 100 104 106 107 110 114 0
e 1 9 10 11 13 14 15 16 18 20 21 22 23 25 26 27 28 30 31 32 33 35 36 39 40 41 42 43 44 47 48 49 51 52 53 56 57 59 60 61 63 64 65 67 69 71 73 76 77 78 80 81 82 84 86 87 88 90 91 92 94 95 96 97 99 101 102 103 105 108 109 111 112 113 115 116 117 118 119 120 121 122 123 124 125 126 127 128 129 130 131 132 133 134 135 136 137 138 139 140 141 142 143 144 145 146 147 148 149 150 151 152 153 154 155 156 157 158 159 160 161 162 163 164 165 166 167 168 169 170 171 172 173 174 175 176 177 178 179 180 181 182 183 184 185 186 187 188 189 190 191 192 193 194 195 196 197 198 199 200 201 202 203 204 205 206 207 208 209 210 211 212 213 214 215 216 217 218 219 220 221 222 223 224 225 226 227 228 229 230 231 232 233 234 235 236 237 238 239 240 241 242 243 244 245 246 247 248 249 250 251 252 253 254 255 256 257 258 259 260 261 262 263 264 265 266 267 268 269 270 271 272 273 274 275 276 277 278 279 280 281 282 283 284 285 286 287 288 289 290 291 292 293 294 295 296 297 298 299 300 301 302 303 304 305 306 307 308 309 310 311 312 313 314 315 316 317 318 319 320 321 322 323 324 325 326 327 328 329 330 331 332 333 334 335 336 337 338 339 340 341 342 343 344 345 346 347 348 349 350 351 352 353 354 355 356 357 358 359 360 361 362 363 364 365 366 367 368 369 370 371 372 373 374 375 376 377 378 379 380 381 382 383 384 385 386 387 388 389 390 391 392 393 394 395 396 397 398 399 400 401 402 403 404 405 406 407 408 409 410 411 412 413 414 415 416 417 418 419 420 421 422 423 424 425 426 427 428 429 430 431 432 433 434 435 436 437 438 439 440 441 442 443 444 445 446 447 448 449 450 451 452 453 454 455 456 457 458 459 460 461 462 463 464 465 466 467 468 469 470 471 472 473 474 475 476 477 478 479 480 481 482 483 484 485 486 487 488 489 490 491 492 493 494 495 496 497 498 499 500 501 502 503 504 505 506 507 508 509 510 511 512 0
1 0
7 -9 0
8 -9 0
-7 -8 9 0
7 -10 0
-8 -10 0
-7 8 10 0
7 11 0
-9 11 0
-10 11 0
-7 9 10 -11 0
-12 13 0
12 13 0
6 -14 0
11 -14 0
13 -14 0
-6 -11 -13 14 0
-6 -15 0
11 -15 0
6 -11 15 0
-14 16 0
-15 16 0
14 15 -16 0
-17 18 0
17 18 0
-19 20 0
19 20 0
5 -21 0
16 -21 0
18 -21 0
20 -21 0
-5 -16 -18 -20 21 0
-5 -22 0
16 -22 0
18 -22 0
5 -16 -18 22 0
-21 23 0
-22 23 0
21 22 -23 0
24 25 0
-24 25 0
4 -26 0
23 -26 0
25 -26 0
-4 -23 -25 26 0
-4 -27 0
23 -27 0
4 -23 27 0
-26 28 0
-27 28 0
26 27 -28 0
29 30 0
-29 30 0
3 -31 0
28 -31 0
30 -31 0
-3 -28 -30 31 0
-3 -32 0
28 -32 0
3 -28 32 0
-31 33 0
-32 33 0
31 32 -33 0
34 35 0
-34 35 0
2 -36 0
33 -36 0
35 -36 0
-2 -33 -35 36 0
38 39 0
-38 39 0
37 -40 0
33 -40 0
39 -40 0
-37 -33 -39 40 0
-37 -41 0
33 -41 0
37 -33 41 0
-40 42 0
-41 42 0
40 41 -42 0
-2 -43 0
42 -43 0
2 -42 43 0
-36 44 0
-43 44 0
36 43 -44 0
45 -47 0
46 -47 0
-45 -46 47 0
45 -48 0
-46 -48 0
-45 46 48 0
-47 49 0
-48 49 0
47 48 -49 0
49 -51 0
50 -51 0
-49 -50 51 0
49 -52 0
-50 -52 0
-49 50 52 0
-51 53 0
-52 53 0
51 52 -53 0
53 -56 0
-54 -56 0
55 -56 0
-53 54 -55 56 0
53 -57 0
-54 -57 0
-55 -57 0
-53 54 55 57 0
53 -59 0
54 -59 0
58 -59 0
-53 -54 -58 59 0
53 -60 0
54 -60 0
-58 -60 0
-53 -54 58 60 0
-56 61 0
-57 61 0
-59 61 0
-60 61 0
56 57 59 60 -61 0
61 -63 0
62 -63 0
-61 -62 63 0
61 -64 0
-62 -64 0
-61 62 64 0
-63 65 0
-64 65 0
63 64 -65 0
65 -67 0
66 -67 0
-65 -66 67 0
65 -69 0
-66 -69 0
68 -69 0
-65 66 -68 69 0
65 -71 0
-66 -71 0
-68 -71 0
70 -71 0
-65 66 68 -70 71 0
65 -73 0
-66 -73 0
-68 -73 0
-70 -73 0
72 -73 0
-65 66 68 70 -72 73 0
65 -76 0
-66 -76 0
-68 -76 0
-70 -76 0
-72 -76 0
74 -76 0
75 -76 0
-65 66 68 70 72 -74 -75 76 0
65 -77 0
-66 -77 0
-68 -77 0
-70 -77 0
-72 -77 0
74 -77 0
-75 -77 0
-65 66 68 70 72 -74 75 77 0
-76 78 0
-77 78 0
76 77 -78 0
78 -80 0
79 -80 0
-78 -79 80 0
78 -81 0
-79 -81 0
-78 79 81 0
-80 82 0
-81 82 0
80 81 -82 0
82 -84 0
83 -84 0
-82 -83 84 0
65 -86 0
-66 -86 0
-68 -86 0
-70 -86 0
-72 -86 0
-74 -86 0
85 -86 0
-65 66 68 70 72 74 -85 86 0
65 -87 0
-66 -87 0
-68 -87 0
-70 -87 0
-72 -87 0
-74 -87 0
-85 -87 0
-65 66 68 70 72 74 85 87 0
-86 88 0
-87 88 0
86 87 -88 0
88 -90 0
89 -90 0
-88 -89 90 0
88 -91 0
-89 -91 0
-88 89 91 0
-90 92 0
-91 92 0
90 91 -92 0
92 -94 0
93 -94 0
-92 -93 94 0
82 -95 0
-83 -95 0
-82 83 95 0
92 -96 0
-93 -96 0
-92 93 96 0
-84 97 0
-94 97 0
-95 97 0
-96 97 0
84 94 95 96 -97 0
97 -99 0
-98 -99 0
-97 98 99 0
97 -101 0
98 -101 0
100 -101 0
-97 -98 -100 101 0
97 -102 0
98 -102 0
-100 -102 0
-97 -98 100 102 0
45 103 0
-67 103 0
-69 103 0
-71 103 0
-73 103 0
-99 103 0
-101 103 0
-102 103 0
-45 67 69 71 73 99 101 102 -103 0
104 105 0
-104 105 0
105 -108 0
-106 -108 0
107 -108 0
-105 106 -107 108 0
105 -109 0
-106 -109 0
-107 -109 0
-105 106 107 109 0
105 -111 0
106 -111 0
110 -111 0
-105 -106 -110 111 0
105 -112 0
106 -112 0
-110 -112 0
-105 -106 110 112 0
-108 113 0
-109 113 0
-111 113 0
-112 113 0
108 109 111 112 -113 0
113 -115 0
114 -115 0
-113 -114 115 0
113 -116 0
-114 -116 0
-113 114 116 0
-115 117 0
-116 117 0
115 116 -117 0
44 -118 0
103 -118 0
117 -118 0
-44 -103 -117 118 0
-12 119 0
12 119 0
6 -120 0
119 -120 0
-6 -119 120 0
-120 121 0
6 121 0
120 -6 -121 0
121 -122 0
19 -122 0
-121 -19 122 0
121 -123 0
-19 -123 0
-121 19 123 0
-122 124 0
-123 124 0
122 123 -124 0
5 -125 0
124 -125 0
-5 -124 125 0
-5 -126 0
121 -126 0
5 -121 126 0
-125 127 0
-126 127 0
125 126 -127 0
127 -128 0
-24 -128 0
-127 24 128 0
127 -129 0
24 -129 0
-127 -24 129 0
-128 130 0
-129 130 0
128 129 -130 0
4 -131 0
130 -131 0
-4 -130 131 0
-4 -132 0
127 -132 0
4 -127 132 0
-131 133 0
-132 133 0
131 132 -133 0
133 -134 0
-29 -134 0
-133 29 134 0
133 -135 0
29 -135 0
-133 -29 135 0
-134 136 0
-135 136 0
134 135 -136 0
3 -137 0
136 -137 0
-3 -136 137 0
-3 -138 0
133 -138 0
3 -133 138 0
-137 139 0
-138 139 0
137 138 -139 0
139 -140 0
-34 -140 0
-139 34 140 0
139 -141 0
34 -141 0
-139 -34 141 0
-140 142 0
-141 142 0
140 141 -142 0
2 -143 0
142 -143 0
-2 -142 143 0
139 -144 0
-38 -144 0
-139 38 144 0
139 -145 0
38 -145 0
-139 -38 145 0
-144 146 0
-145 146 0
144 145 -146 0
37 -147 0
146 -147 0
-37 -146 147 0
-37 -148 0
139 -148 0
37 -139 148 0
-147 149 0
-148 149 0
147 148 -149 0
-2 -150 0
149 -150 0
2 -149 150 0
-143 151 0
-150 151 0
143 150 -151 0
151 -152 0
-45 -152 0
-151 45 152 0
151 -153 0
45 -153 0
46 -153 0
-151 -45 -46 153 0
151 -154 0
45 -154 0
-46 -154 0
-151 -45 46 154 0
-153 155 0
-154 155 0
153 154 -155 0
155 -156 0
49 -156 0
50 -156 0
-155 -49 -50 156 0
155 -157 0
49 -157 0
-50 -157 0
-155 -49 50 157 0
-156 158 0
-157 158 0
156 157 -158 0
158 -159 0
61 -159 0
62 -159 0
-158 -61 -62 159 0
158 -160 0
61 -160 0
-62 -160 0
-158 -61 62 160 0
-159 161 0
-160 161 0
159 160 -161 0
-67 162 0
-69 162 0
-71 162 0
-73 162 0
67 69 71 73 -162 0
161 -163 0
162 -163 0
-161 -162 163 0
161 -164 0
65 -164 0
-66 -164 0
-68 -164 0
-70 -164 0
-72 -164 0
-74 -164 0
85 -164 0
-161 -65 66 68 70 72 74 -85 164 0
161 -165 0
65 -165 0
-66 -165 0
-68 -165 0
-70 -165 0
-72 -165 0
-74 -165 0
-85 -165 0
-161 -65 66 68 70 72 74 85 165 0
-164 166 0
-165 166 0
164 165 -166 0
166 -167 0
88 -167 0
89 -167 0
-166 -88 -89 167 0
166 -168 0
88 -168 0
-89 -168 0
-166 -88 89 168 0
-167 169 0
-168 169 0
167 168 -169 0
169 -170 0
92 -170 0
93 -170 0
-169 -92 -93 170 0
169 -171 0
92 -171 0
-93 -171 0
-169 -92 93 171 0
161 -172 0
65 -172 0
-66 -172 0
-68 -172 0
-70 -172 0
-72 -172 0
74 -172 0
75 -172 0
-161 -65 66 68 70 72 -74 -75 172 0
161 -173 0
65 -173 0
-66 -173 0
-68 -173 0
-70 -173 0
-72 -173 0
74 -173 0
-75 -173 0
-161 -65 66 68 70 72 -74 75 173 0
-172 174 0
-173 174 0
172 173 -174 0
174 -175 0
78 -175 0
79 -175 0
-174 -78 -79 175 0
174 -176 0
78 -176 0
-79 -176 0
-174 -78 79 176 0
-175 177 0
-176 177 0
175 176 -177 0
177 -178 0
82 -178 0
83 -178 0
-177 -82 -83 178 0
177 -179 0
82 -179 0
-83 -179 0
-177 -82 83 179 0
-170 180 0
-171 180 0
-178 180 0
-179 180 0
170 171 178 179 -180 0
-101 181 0
-102 181 0
101 102 -181 0
-99 182 0
-181 182 0
99 181 -182 0
180 -183 0
182 -183 0
-180 -182 183 0
-152 184 0
-163 184 0
-183 184 0
152 163 183 -184 0
184 -185 0
-104 -185 0
-184 104 185 0
184 -186 0
104 -186 0
-184 -104 186 0
-185 187 0
-186 187 0
185 186 -187 0
-12 188 0
12 188 0
6 -189 0
188 -189 0
-6 -188 189 0
-189 190 0
6 190 0
189 -6 -190 0
190 -191 0
19 -191 0
-190 -19 191 0
190 -192 0
-19 -192 0
-190 19 192 0
-191 193 0
-192 193 0
191 192 -193 0
5 -194 0
193 -194 0
-5 -193 194 0
-5 -195 0
190 -195 0
5 -190 195 0
-194 196 0
-195 196 0
194 195 -196 0
196 -197 0
-24 -197 0
-196 24 197 0
196 -198 0
24 -198 0
-196 -24 198 0
-197 199 0
-198 199 0
197 198 -199 0
4 -200 0
199 -200 0
-4 -199 200 0
-4 -201 0
196 -201 0
4 -196 201 0
-200 202 0
-201 202 0
200 201 -202 0
202 -203 0
-29 -203 0
-202 29 203 0
202 -204 0
29 -204 0
-202 -29 204 0
-203 205 0
-204 205 0
203 204 -205 0
3 -206 0
205 -206 0
-3 -205 206 0
-3 -207 0
202 -207 0
3 -202 207 0
-206 208 0
-207 208 0
206 207 -208 0
208 -209 0
-34 -209 0
-208 34 209 0
208 -210 0
34 -210 0
-208 -34 210 0
-209 211 0
-210 211 0
209 210 -211 0
2 -212 0
211 -212 0
-2 -211 212 0
208 -213 0
-38 -213 0
-208 38 213 0
208 -214 0
38 -214 0
-208 -38 214 0
-213 215 0
-214 215 0
213 214 -215 0
37 -216 0
215 -216 0
-37 -215 216 0
-37 -217 0
208 -217 0
37 -208 217 0
-216 218 0
-217 218 0
216 217 -218 0
-2 -219 0
218 -219 0
2 -218 219 0
-212 220 0
-219 220 0
212 219 -220 0
220 -221 0
-45 -221 0
-220 45 221 0
220 -222 0
45 -222 0
46 -222 0
-220 -45 -46 222 0
220 -223 0
45 -223 0
-46 -223 0
-220 -45 46 223 0
-222 224 0
-223 224 0
222 223 -224 0
224 -225 0
49 -225 0
50 -225 0
-224 -49 -50 225 0
224 -226 0
49 -226 0
-50 -226 0
-224 -49 50 226 0
-225 227 0
-226 227 0
225 226 -227 0
227 -228 0
61 -228 0
62 -228 0
-227 -61 -62 228 0
227 -229 0
61 -229 0
-62 -229 0
-227 -61 62 229 0
-228 230 0
-229 230 0
228 229 -230 0
-67 231 0
-69 231 0
-71 231 0
-73 231 0
67 69 71 73 -231 0
230 -232 0
231 -232 0
-230 -231 232 0
230 -233 0
65 -233 0
-66 -233 0
-68 -233 0
-70 -233 0
-72 -233 0
-74 -233 0
85 -233 0
-230 -65 66 68 70 72 74 -85 233 0
230 -234 0
65 -234 0
-66 -234 0
-68 -234 0
-70 -234 0
-72 -234 0
-74 -234 0
-85 -234 0
-230 -65 66 68 70 72 74 85 234 0
-233 235 0
-234 235 0
233 234 -235 0
235 -236 0
88 -236 0
89 -236 0
-235 -88 -89 236 0
235 -237 0
88 -237 0
-89 -237 0
-235 -88 89 237 0
-236 238 0
-237 238 0
236 237 -238 0
238 -239 0
92 -239 0
93 -239 0
-238 -92 -93 239 0
238 -240 0
92 -240 0
-93 -240 0
-238 -92 93 240 0
230 -241 0
65 -241 0
-66 -241 0
-68 -241 0
-70 -241 0
-72 -241 0
74 -241 0
75 -241 0
-230 -65 66 68 70 72 -74 -75 241 0
230 -242 0
65 -242 0
-66 -242 0
-68 -242 0
-70 -242 0
-72 -242 0
74 -242 0
-75 -242 0
-230 -65 66 68 70 72 -74 75 242 0
-241 243 0
-242 243 0
241 242 -243 0
243 -244 0
78 -244 0
79 -244 0
-243 -78 -79 244 0
243 -245 0
78 -245 0
-79 -245 0
-243 -78 79 245 0
-244 246 0
-245 246 0
244 245 -246 0
246 -247 0
82 -247 0
83 -247 0
-246 -82 -83 247 0
246 -248 0
82 -248 0
-83 -248 0
-246 -82 83 248 0
-239 249 0
-240 249 0
-247 249 0
-248 249 0
239 240 247 248 -249 0
-99 250 0
-181 250 0
99 181 -250 0
249 -251 0
250 -251 0
-249 -250 251 0
-221 252 0
-232 252 0
-251 252 0
221 232 251 -252 0
252 -253 0
-104 -253 0
-252 104 253 0
252 -254 0
104 -254 0
-252 -104 254 0
-253 255 0
-254 255 0
253 254 -255 0
261 -263 0
262 -263 0
-261 -262 263 0
261 -264 0
-262 -264 0
-261 262 264 0
261 265 0
-263 265 0
-264 265 0
-261 263 264 -265 0
-266 267 0
266 267 0
260 -268 0
265 -268 0
267 -268 0
-260 -265 -267 268 0
-260 -269 0
265 -269 0
260 -265 269 0
-268 270 0
-269 270 0
268 269 -270 0
-271 272 0
271 272 0
-273 274 0
273 274 0
259 -275 0
270 -275 0
272 -275 0
274 -275 0
-259 -270 -272 -274 275 0
-259 -276 0
270 -276 0
272 -276 0
259 -270 -272 276 0
-275 277 0
-276 277 0
275 276 -277 0
278 279 0
-278 279 0
258 -280 0
277 -280 0
279 -280 0
-258 -277 -279 280 0
-258 -281 0
277 -281 0
258 -277 281 0
-280 282 0
-281 282 0
280 281 -282 0
283 284 0
-283 284 0
257 -285 0
282 -285 0
284 -285 0
-257 -282 -284 285 0
-257 -286 0
282 -286 0
257 -282 286 0
-285 287 0
-286 287 0
285 286 -287 0
288 289 0
-288 289 0
256 -290 0
287 -290 0
289 -290 0
-256 -287 -289 290 0
292 293 0
-292 293 0
291 -294 0
287 -294 0
293 -294 0
-291 -287 -293 294 0
-291 -295 0
287 -295 0
291 -287 295 0
-294 296 0
-295 296 0
294 295 -296 0
-256 -297 0
296 -297 0
256 -296 297 0
-290 298 0
-297 298 0
290 297 -298 0
299 -301 0
300 -301 0
-299 -300 301 0
299 -302 0
-300 -302 0
-299 300 302 0
-301 303 0
-302 303 0
301 302 -303 0
303 -305 0
304 -305 0
-303 -304 305 0
303 -306 0
-304 -306 0
-303 304 306 0
-305 307 0
-306 307 0
305 306 -307 0
307 -310 0
-308 -310 0
309 -310 0
-307 308 -309 310 0
307 -311 0
-308 -311 0
-309 -311 0
-307 308 309 311 0
307 -313 0
308 -313 0
312 -313 0
-307 -308 -312 313 0
307 -314 0
308 -314 0
-312 -314 0
-307 -308 312 314 0
-310 315 0
-311 315 0
-313 315 0
-314 315 0
310 311 313 314 -315 0
315 -317 0
316 -317 0
-315 -316 317 0
315 -318 0
-316 -318 0
-315 316 318 0
-317 319 0
-318 319 0
317 318 -319 0
319 -321 0
320 -321 0
-319 -320 321 0
319 -323 0
-320 -323 0
322 -323 0
-319 320 -322 323 0
319 -325 0
-320 -325 0
-322 -325 0
324 -325 0
-319 320 322 -324 325 0
319 -327 0
-320 -327 0
-322 -327 0
-324 -327 0
326 -327 0
-319 320 322 324 -326 327 0
319 -330 0
-320 -330 0
-322 -330 0
-324 -330 0
-326 -330 0
328 -330 0
329 -330 0
-319 320 322 324 326 -328 -329 330 0
319 -331 0
-320 -331 0
-322 -331 0
-324 -331 0
-326 -331 0
328 -331 0
-329 -331 0
-319 320 322 324 326 -328 329 331 0
-330 332 0
-331 332 0
330 331 -332 0
332 -334 0
333 -334 0
-332 -333 334 0
332 -335 0
-333 -335 0
-332 333 335 0
-334 336 0
-335 336 0
334 335 -336 0
336 -338 0
337 -338 0
-336 -337 338 0
319 -340 0
-320 -340 0
-322 -340 0
-324 -340 0
-326 -340 0
-328 -340 0
339 -340 0
-319 320 322 324 326 328 -339 340 0
319 -341 0
-320 -341 0
-322 -341 0
-324 -341 0
-326 -341 0
-328 -341 0
-339 -341 0
-319 320 322 324 326 328 339 341 0
-340 342 0
-341 342 0
340 341 -342 0
342 -344 0
343 -344 0
-342 -343 344 0
342 -345 0
-343 -345 0
-342 343 345 0
-344 346 0
-345 346 0
344 345 -346 0
346 -348 0
347 -348 0
-346 -347 348 0
336 -349 0
-337 -349 0
-336 337 349 0
346 -350 0
-347 -350 0
-346 347 350 0
-338 351 0
-348 351 0
-349 351 0
-350 351 0
338 348 349 350 -351 0
351 -353 0
-352 -353 0
-351 352 353 0
351 -355 0
352 -355 0
354 -355 0
-351 -352 -354 355 0
351 -356 0
352 -356 0
-354 -356 0
-351 -352 354 356 0
299 357 0
-321 357 0
-323 357 0
-325 357 0
-327 357 0
-353 357 0
-355 357 0
-356 357 0
-299 321 323 325 327 353 355 356 -357 0
358 359 0
-358 359 0
359 -362 0
-360 -362 0
361 -362 0
-359 360 -361 362 0
359 -363 0
-360 -363 0
-361 -363 0
-359 360 361 363 0
359 -365 0
360 -365 0
364 -365 0
-359 -360 -364 365 0
359 -366 0
360 -366 0
-364 -366 0
-359 -360 364 366 0
-362 367 0
-363 367 0
-365 367 0
-366 367 0
362 363 365 366 -367 0
367 -369 0
368 -369 0
-367 -368 369 0
367 -370 0
-368 -370 0
-367 368 370 0
-369 371 0
-370 371 0
369 370 -371 0
298 -372 0
357 -372 0
371 -372 0
-298 -357 -371 372 0
-266 373 0
266 373 0
260 -374 0
373 -374 0
-260 -373 374 0
-374 375 0
260 375 0
374 -260 -375 0
375 -376 0
273 -376 0
-375 -273 376 0
375 -377 0
-273 -377 0
-375 273 377 0
-376 378 0
-377 378 0
376 377 -378 0
259 -379 0
378 -379 0
-259 -378 379 0
-259 -380 0
375 -380 0
259 -375 380 0
-379 381 0
-380 381 0
379 380 -381 0
381 -382 0
-278 -382 0
-381 278 382 0
381 -383 0
278 -383 0
-381 -278 383 0
-382 384 0
-383 384 0
382 383 -384 0
258 -385 0
384 -385 0
-258 -384 385 0
-258 -386 0
381 -386 0
258 -381 386 0
-385 387 0
-386 387 0
385 386 -387 0
387 -388 0
-283 -388 0
-387 283 388 0
387 -389 0
283 -389 0
-387 -283 389 0
-388 390 0
-389 390 0
388 389 -390 0
257 -391 0
390 -391 0
-257 -390 391 0
-257 -392 0
387 -392 0
257 -387 392 0
-391 393 0
-392 393 0
391 392 -393 0
393 -394 0
-288 -394 0
-393 288 394 0
393 -395 0
288 -395 0
-393 -288 395 0
-394 396 0
-395 396 0
394 395 -396 0
256 -397 0
396 -397 0
-256 -396 397 0
393 -398 0
-292 -398 0
-393 292 398 0
393 -399 0
292 -399 0
-393 -292 399 0
-398 400 0
-399 400 0
398 399 -400 0
291 -401 0
400 -401 0
-291 -400 401 0
-291 -402 0
393 -402 0
291 -393 402 0
-401 403 0
-402 403 0
401 402 -403 0
-256 -404 0
403 -404 0
256 -403 404 0
-397 405 0
-404 405 0
397 404 -405 0
405 -406 0
-299 -406 0
-405 299 406 0
405 -407 0
299 -407 0
300 -407 0
-405 -299 -300 407 0
405 -408 0
299 -408 0
-300 -408 0
-405 -299 300 408 0
-407 409 0
-408 409 0
407 408 -409 0
409 -410 0
303 -410 0
304 -410 0
-409 -303 -304 410 0
409 -411 0
303 -411 0
-304 -411 0
-409 -303 304 411 0
-410 412 0
-411 412 0
410 411 -412 0
412 -413 0
315 -413 0
316 -413 0
-412 -315 -316 413 0
412 -414 0
315 -414 0
-316 -414 0
-412 -315 316 414 0
-413 415 0
-414 415 0
413 414 -415 0
-321 416 0
-323 416 0
-325 416 0
-327 416 0
321 323 325 327 -416 0
415 -417 0
416 -417 0
-415 -416 417 0
415 -418 0
319 -418 0
-320 -418 0
-322 -418 0
-324 -418 0
-326 -418 0
-328 -418 0
339 -418 0
-415 -319 320 322 324 326 328 -339 418 0
415 -419 0
319 -419 0
-320 -419 0
-322 -419 0
-324 -419 0
-326 -419 0
-328 -419 0
-339 -419 0
-415 -319 320 322 324 326 328 339 419 0
-418 420 0
-419 420 0
418 419 -420 0
420 -421 0
342 -421 0
343 -421 0
-420 -342 -343 421 0
420 -422 0
342 -422 0
-343 -422 0
-420 -342 343 422 0
-421 423 0
-422 423 0
421 422 -423 0
423 -424 0
346 -424 0
347 -424 0
-423 -346 -347 424 0
423 -425 0
346 -425 0
-347 -425 0
-423 -346 347 425 0
415 -426 0
319 -426 0
-320 -426 0
-322 -426 0
-324 -426 0
-326 -426 0
328 -426 0
329 -426 0
-415 -319 320 322 324 326 -328 -329 426 0
415 -427 0
319 -427 0
-320 -427 0
-322 -427 0
-324 -427 0
-326 -427 0
328 -427 0
-329 -427 0
-415 -319 320 322 324 326 -328 329 427 0
-426 428 0
-427 428 0
426 427 -428 0
428 -429 0
332 -429 0
333 -429 0
-428 -332 -333 429 0
428 -430 0
332 -430 0
-333 -430 0
-428 -332 333 430 0
-429 431 0
-430 431 0
429 430 -431 0
431 -432 0
336 -432 0
337 -432 0
-431 -336 -337 432 0
431 -433 0
336 -433 0
-337 -433 0
-431 -336 337 433 0
-424 434 0
-425 434 0
-432 434 0
-433 434 0
424 425 432 433 -434 0
-355 435 0
-356 435 0
355 356 -435 0
-353 436 0
-435 436 0
353 435 -436 0
434 -437 0
436 -437 0
-434 -436 437 0
-406 438 0
-417 438 0
-437 438 0
406 417 437 -438 0
438 -439 0
-358 -439 0
-438 358 439 0
438 -440 0
358 -440 0
-438 -358 440 0
-439 441 0
-440 441 0
439 440 -441 0
-266 442 0
266 442 0
260 -443 0
442 -443 0
-260 -442 443 0
-443 444 0
260 444 0
443 -260 -444 0
444 -445 0
273 -445 0
-444 -273 445 0
444 -446 0
-273 -446 0
-444 273 446 0
-445 447 0
-446 447 0
445 446 -447 0
259 -448 0
447 -448 0
-259 -447 448 0
-259 -449 0
444 -449 0
259 -444 449 0
-448 450 0
-449 450 0
448 449 -450 0
450 -451 0
-278 -451 0
-450 278 451 0
450 -452 0
278 -452 0
-450 -278 452 0
-451 453 0
-452 453 0
451 452 -453 0
258 -454 0
453 -454 0
-258 -453 454 0
-258 -455 0
450 -455 0
258 -450 455 0
-454 456 0
-455 456 0
454 455 -456 0
456 -457 0
-283 -457 0
-456 283 457 0
456 -458 0
283 -458 0
-456 -283 458 0
-457 459 0
-458 459 0
457 458 -459 0
257 -460 0
459 -460 0
-257 -459 460 0
-257 -461 0
456 -461 0
257 -456 461 0
-460 462 0
-461 462 0
460 461 -462 0
462 -463 0
-288 -463 0
-462 288 463 0
462 -464 0
288 -464 0
-462 -288 464 0
-463 465 0
-464 465 0
463 464 -465 0
256 -466 0
465 -466 0
-256 -465 466 0
462 -467 0
-292 -467 0
-462 292 467 0
462 -468 0
292 -468 0
-462 -292 468 0
-467 469 0
-468 469 0
467 468 -469 0
291 -470 0
469 -470 0
-291 -469 470 0
-291 -471 0
462 -471 0
291 -462 471 0
-470 472 0
-471 472 0
470 471 -472 0
-256 -473 0
472 -473 0
256 -472 473 0
-466 474 0
-473 474 0
466 473 -474 0
474 -475 0
-299 -475 0
-474 299 475 0
474 -476 0
299 -476 0
300 -476 0
-474 -299 -300 476 0
474 -477 0
299 -477 0
-300 -477 0
-474 -299 300 477 0
-476 478 0
-477 478 0
476 477 -478 0
478 -479 0
303 -479 0
304 -479 0
-478 -303 -304 479 0
478 -480 0
303 -480 0
-304 -480 0
-478 -303 304 480 0
-479 481 0
-480 481 0
479 480 -481 0
481 -482 0
315 -482 0
316 -482 0
-481 -315 -316 482 0
481 -483 0
315 -483 0
-316 -483 0
-481 -315 316 483 0
-482 484 0
-483 484 0
482 483 -484 0
-321 485 0
-323 485 0
-325 485 0
-327 485 0
321 323 325 327 -485 0
484 -486 0
485 -486 0
-484 -485 486 0
484 -487 0
319 -487 0
-320 -487 0
-322 -487 0
-324 -487 0
-326 -487 0
-328 -487 0
339 -487 0
-484 -319 320 322 324 326 328 -339 487 0
484 -488 0
319 -488 0
-320 -488 0
-322 -488 0
-324 -488 0
-326 -488 0
-328 -488 0
-339 -488 0
-484 -319 320 322 324 326 328 339 488 0
-487 489 0
-488 489 0
487 488 -489 0
489 -490 0
342 -490 0
343 -490 0
-489 -342 -343 490 0
489 -491 0
342 -491 0
-343 -491 0
-489 -342 343 491 0
-490 492 0
-491 492 0
490 491 -492 0
492 -493 0
346 -493 0
347 -493 0
-492 -346 -347 493 0
492 -494 0
346 -494 0
-347 -494 0
-492 -346 347 494 0
484 -495 0
319 -495 0
-320 -495 0
-322 -495 0
-324 -495 0
-326 -495 0
328 -495 0
329 -495 0
-484 -319 320 322 324 326 -328 -329 495 0
484 -496 0
319 -496 0
-320 -496 0
-322 -496 0
-324 -496 0
-326 -496 0
328 -496 0
-329 -496 0
-484 -319 320 322 324 326 -328 329 496 0
-495 497 0
-496 497 0
495 496 -497 0
497 -498 0
332 -498 0
333 -498 0
-497 -332 -333 498 0
497 -499 0
332 -499 0
-333 -499 0
-497 -332 333 499 0
-498 500 0
-499 500 0
498 499 -500 0
500 -501 0
336 -501 0
337 -501 0
-500 -336 -337 501 0
500 -502 0
336 -502 0
-337 -502 0
-500 -336 337 502 0
-493 503 0
-494 503 0
-501 503 0
-502 503 0
493 494 501 502 -503 0
-353 504 0
-435 504 0
353 435 -504 0
503 -505 0
504 -505 0
-503 -504 505 0
-475 506 0
-486 506 0
-505 506 0
475 486 505 -506 0
506 -507 0
-358 -507 0
-506 358 507 0
506 -508 0
358 -508 0
-506 -358 508 0
-507 509 0
-508 509 0
507 508 -509 0
-441 -187 -510 0
441 187 -510 0
-441 187 510 0
441 -187 510 0
-509 -255 -511 0
509 255 -511 0
-509 255 511 0
509 -255 511 0
-510 -512 0
-511 -512 0
372 -512 0
510 511 -372 512 0
-118 512 0
